12
0 72 61 12 31 22 2 42 72 4 35 96 
24 0 41 84 2 77 64 72 12 66 48 94 
15 16 0 36 16 33 25 80 4 33 78 95 
38 75 17 0 48 57 2 58 82 1 3 24 
7 56 5 34 0 4 72 41 23 93 24 72 
21 69 7 2 9 0 19 89 66 39 76 51 
27 11 31 37 61 64 0 8 26 65 69 29 
48 52 53 18 77 43 75 0 57 13 19 82 
41 60 71 49 74 62 67 35 0 77 41 69 
64 36 40 14 31 89 46 62 83 0 64 84 
93 71 49 82 67 43 10 3 56 28 0 93 
16 15 51 58 75 40 9 92 52 60 61 0 
